tsp/input_files/cmw.tsp
NAME: cmw10
TYPE: TSP
COMMENT: 10-city problem
DIMENSION: 10
EDGE_WEIGHT_TYPE: EUC_2D
NODE_COORD_SECTION
1 0 0
2 12 1
3 19 1
4 5 5
5 17 7
6 10 10
7 2 13
8 6 16
9 14 18
10 15 18
EOF

