tsp/opt_tours/cmw.opt.tour
NAME : cmw.opt.tour
COMMENT : Optimal tour for cmw.tsp (72.2771869455)
TYPE : Tour
DIMENSON : 10
TOUR_SECTION
1
2
3
5
6
10
9
8
7
4
-1
EOF
